SCIP version 5.0.0 [precision: 8 byte] [memory: block] [mode: optimized] [LP solver: NONE] [GitHash: 3bbd232]
Copyright (C) 2002-2017 Konrad-Zuse-Zentrum fuer Informationstechnik Berlin (ZIB)

External codes: 
  Readline EditLine w  GNU library for command line editing (gnu.org/s/readline)
  CppAD 20160000.1     Algorithmic Differentiation of C++ algorithms developed by B. Bell (www.coin-or.org/CppAD)
  ZLIB 1.2.5           General purpose compression library by J. Gailly and M. Adler (zlib.net)
  GMP 6.1.2            GNU Multiple Precision Arithmetic Library developed by T. Granlund (gmplib.org)

user parameter file <scip.set> not found - using default parameters

read problem <../../Split_data/output/biodeg/5/3_sample_biodeg.logreg>
============

File name	:	../../Split_data/output/biodeg/5/3_sample_biodeg.logreg
Problem name 	:	3_sample_biodeg
Number of data	:	844
Number of var	:	41
The given data has linear dependence
1 sets of column vector are linearly dependent:
{ 19}, 

[dim=1] time: 0.032776
[dim=2] time: 0.063601
[dim=3] time: 0.102329
[dim=4] time: 0.134096
[dim=5] time: 0.17412
[dim=6] time: 0.204655
[dim=7] time: 0.234462
[dim=8] time: 0.263928
[dim=9] time: 0.302958
[dim=10] time: 0.336196
[dim=11] time: 0.363188
[dim=12] time: 0.385187
[dim=13] time: 0.409348
[dim=14] time: 0.428111
[dim=15] time: 0.449139
[dim=16] time: 0.469007
[dim=17] time: 0.488632
[dim=18] time: 0.547581
[dim=19] time: 0.574605
[dim=20] time: 0.600126
[dim=21] time: 0.630054
[dim=22] time: 0.654127
[dim=23] Time of forward = 0.671236sec.
AIC: 542.065
k: 22

[dim=40] time: 0.146327
[dim=39] time: 0.18481
[dim=38] time: 0.227419
[dim=37] time: 0.274129
[dim=36] time: 0.327316
[dim=35] time: 0.370091
[dim=34] time: 0.423909
[dim=33] time: 0.490167
[dim=32] time: 0.561851
[dim=31] time: 0.598973
[dim=30] time: 0.634466
[dim=29] time: 0.671273
[dim=28] time: 0.734015
[dim=27] time: 0.805102
[dim=26] time: 0.836558
[dim=25] Time of backward = 0.865494sec.
AIC: 541.736
k: 26
